
Gurobi 12.0.1 (mac64[arm], gurobi_cl) logging started Tue Apr  8 15:12:43 2025

Set parameter Username
Set parameter LicenseID to value 2649016
Set parameter LogFile to value "gurobi.log"
Using license file /Users/yijinggong/gurobi.lic
Academic license - for non-commercial use only - expires 2026-04-08
